DATASET = "thpack2";
INSTANCE = "010";

WIDTH = 233;
HEIGHT = 220;
LENGTH = 587;

NO_OF_SHAPES = 5;
size = [|
  68,66,31 |
  120,34,26 |
  95,76,60 |
  61,47,34 |
  53,45,36 |
|];

verticality = [|
  0,0,1 |
  0,1,1 |
  1,1,1 |
  1,1,1 |
  1,1,1 |
|];

box_count = [
  32,
  32,
  35,
  30,
  45,
];
